Route #1: 7 14 21 26 40 32 27 15 8 1 9 10 16 22 17 18 2 3 11 12 23 37 36 28 35 34 33 43 53 67 78 85 98 92 86 68 54 55 50 44 56 45 57 58 51 46 59 47 60 63 72 71 74 73 70 69 79 87 99 100 88 93 89 90 80 81 94 95 82 91 96 97 84 77 83 76 75 64 61 65 66 62 52 49 42 31 30 41 48 38 29 24 4 19 20 5 6 13 25 39
Cost 47065
